set numbers := 1,2,3,4,5,6,7,8;

param P :=
1 15.68
2 22.10
3 30.39
4 8.93
5 40.55
6 18.58
7 22.54
8 24.84;

param C :=
1 31.80
2 24.28
3 32.50
4 14.16
5 50.99
6 24.17
7 23.67
8 28.77;

param E :=
1 29.50
2 26.31
3 34.55
4 15.23
5 62.43
6 26.68
7 23.85
8 31.66;